benchmarks_vrp/CMT3/min_c/CMT3_2.vrp
NAME: CMT3_2
TYPE: CVRP
COMMENT: 826.14 - Cluster Nr.2
DIMENSION: 11
CAPACITY: 200
EDGE_WEIGHT_TYPE: EUC_2D
NODE_COORD_TYPE: TWOD_COORDS
NODE_COORD_SECTION: 
3 35 35
1 46 13
7 45 20
5 49 11
4 44 17
8 42 7
6 32 12
2 45 10
9 47 16
10 30 5
11 35 17
DEPOT_SECTION: 
3
-1
DEMAND_SECTION: 
8 5
10 8
7 11
2 18
11 7
9 25
3 0
5 18
1 8
6 7
4 9
EOF
