benchmarks_vrp/CMT3/min_c/CMT3_2.tour
NAME: CMT3_2 solution
TYPE: TOUR
TOUR_SECTION:
3 7 4 9 1 5 2 8 10 6 11 -1
-1
EOF